NAME: random-31-25868
TYPE: TSP
COMMENT: size=31 seed=25868
DIMENSION: 64
EDGE_WEIGHT_TYPE: EUC_2D
NODE_COORD_SECTION
+0 476 38
-0 476 38
+1 933 488
-1 440 784
+2 80 246
-2 680 128
+3 791 38
-3 562 410
+4 269 19
-4 174 553
+5 51 737
-5 367 280
+6 544 234
-6 366 299
+7 921 494
-7 640 716
+8 933 887
-8 200 414
+9 617 130
-9 80 478
+10 26 144
-10 753 559
+11 89 300
-11 571 393
+12 454 893
-12 799 825
+13 494 575
-13 253 691
+14 137 788
-14 247 602
+15 249 738
-15 847 788
+16 534 38
-16 88 635
+17 52 15
-17 720 916
+18 131 498
-18 979 494
+19 57 383
-19 294 511
+20 609 18
-20 702 92
+21 783 865
-21 672 364
+22 577 369
-22 480 583
+23 580 357
-23 106 987
+24 115 620
-24 182 977
+25 862 308
-25 465 740
+26 444 555
-26 504 411
+27 417 254
-27 301 176
+28 445 373
-28 719 357
+29 852 891
-29 488 285
+30 289 835
-30 773 692
+31 195 657
-31 217 758
PRECEDENCE_SECTION
+0 -0
+1 -1
+2 -2
+3 -3
+4 -4
+5 -5
+6 -6
+7 -7
+8 -8
+9 -9
+10 -10
+11 -11
+12 -12
+13 -13
+14 -14
+15 -15
+16 -16
+17 -17
+18 -18
+19 -19
+20 -20
+21 -21
+22 -22
+23 -23
+24 -24
+25 -25
+26 -26
+27 -27
+28 -28
+29 -29
+30 -30
+31 -31
EOF
